benchmark/results/graph__15-1000-0.10-03_0/graph__15-1000-0.10-03_0_Quinton_Benders_primal_sub.lp
\ This file has been generated by DOcplex
\ ENCODING=ISO-8859-1
\Problem name: Quinton Benders_primal_sub

Maximize
 obj: tau
Subject To
 c1: tau <= 0.001179245283
 c2: y_a0_proc_0 + y_a0_proc_1 + y_a0_proc_2 - tau = 0
 c3: y_a0_proc_0 <= 1
 c4: y_a0_proc_1 <= 0
 c5: y_a0_proc_2 <= 0
 c6: tau <= 0.001041666667
 c7: y_a1_proc_0 + y_a1_proc_1 + y_a1_proc_2 - tau = 0
 c8: y_a1_proc_0 <= 0
 c9: y_a1_proc_1 <= 1
 c10: y_a1_proc_2 <= 0
 c11: tau <= 0.003773584906
 c12: y_a2_proc_0 + y_a2_proc_1 + y_a2_proc_2 - tau = 0
 c13: y_a2_proc_0 <= 0
 c14: y_a2_proc_1 <= 1
 c15: y_a2_proc_2 <= 0
 c16: tau <= 0.001194743130
 c17: y_a3_proc_0 + y_a3_proc_1 - tau = 0
 c18: y_a3_proc_0 <= 1
 c19: y_a3_proc_1 <= 0
 c20: tau <= 0.001050420168
 c21: y_a4_proc_1 + y_a4_proc_2 - tau = 0
 c22: y_a4_proc_1 <= 0
 c23: y_a4_proc_2 <= 1
 c24: tau <= 0.001201923077
 c25: y_a5_proc_0 + y_a5_proc_1 + y_a5_proc_2 - tau = 0
 c26: y_a5_proc_0 <= 1
 c27: y_a5_proc_1 <= 0
 c28: y_a5_proc_2 <= 0
 c29: tau <= 0.001297016861
 c30: y_a6_proc_0 + y_a6_proc_1 + y_a6_proc_2 - tau = 0
 c31: y_a6_proc_0 <= 0
 c32: y_a6_proc_1 <= 0
 c33: y_a6_proc_2 <= 1
 c34: tau <= 0.000856164384
 c35: y_a7_proc_1 + y_a7_proc_2 - tau = 0
 c36: y_a7_proc_1 <= 0
 c37: y_a7_proc_2 <= 1
 c38: tau <= 0.001302083333
 c39: y_a8_proc_0 + y_a8_proc_2 - tau = 0
 c40: y_a8_proc_0 <= 0
 c41: y_a8_proc_2 <= 1
 c42: tau <= 0.001203369434
 c43: y_a9_proc_0 + y_a9_proc_1 + y_a9_proc_2 - tau = 0
 c44: y_a9_proc_0 <= 1
 c45: y_a9_proc_1 <= 0
 c46: y_a9_proc_2 <= 0
 c47: tau <= 0.001083423619
 c48: y_a10_proc_1 + y_a10_proc_2 - tau = 0
 c49: y_a10_proc_1 <= 1
 c50: y_a10_proc_2 <= 0
 c51: tau <= 0.001101321586
 c52: y_a11_proc_0 + y_a11_proc_1 + y_a11_proc_2 - tau = 0
 c53: y_a11_proc_0 <= 0
 c54: y_a11_proc_1 <= 0
 c55: y_a11_proc_2 <= 1
 c56: tau <= 0.000936329588
 c57: y_a12_proc_0 + y_a12_proc_1 - tau = 0
 c58: y_a12_proc_0 <= 1
 c59: y_a12_proc_1 <= 0
 c60: tau <= 0.001295336788
 c61: y_a13_proc_1 + y_a13_proc_2 - tau = 0
 c62: y_a13_proc_1 <= 0
 c63: y_a13_proc_2 <= 1
 c64: tau <= 0.001326259947
 c65: y_a14_proc_0 + y_a14_proc_2 - tau = 0
 c66: y_a14_proc_0 <= 0
 c67: y_a14_proc_2 <= 1
 c68: u_a1 - u_a0 - 848 y_a0_proc_0 - 952 y_a0_proc_1 - 974 y_a0_proc_2 >= -1
 c69: u_a0 - u_a2 - 1144 y_a2_proc_0 - 265 y_a2_proc_1 - 1055 y_a2_proc_2 >= -2
 c70: u_a3 - u_a0 - 848 y_a0_proc_0 - 952 y_a0_proc_1 - 974 y_a0_proc_2 >= 0
 c71: u_a4 - u_a3 - 837 y_a3_proc_0 - 974 y_a3_proc_1 >= -1
 c72: u_a2 - u_a5 - 832 y_a5_proc_0 - 1063 y_a5_proc_1 - 751 y_a5_proc_2 >= 0
 c73: u_a0 - u_a6 - 1070 y_a6_proc_0 - 1213 y_a6_proc_1 - 771 y_a6_proc_2 >= 0
 c74: u_a2 - u_a7 - 1083 y_a7_proc_1 - 1168 y_a7_proc_2 >= 0
 c75: u_a7 - u_a8 - 855 y_a8_proc_0 - 768 y_a8_proc_2 >= 0
 c76: u_a8 - u_a9 - 831 y_a9_proc_0 - 1180 y_a9_proc_1 - 1163 y_a9_proc_2 >= 0
 c77: u_a10 - u_a4 - 1150 y_a4_proc_1 - 952 y_a4_proc_2 >= 0
 c78: u_a11 - u_a7 - 1083 y_a7_proc_1 - 1168 y_a7_proc_2 >= 0
 c79: u_a12 - u_a10 - 923 y_a10_proc_1 - 1288 y_a10_proc_2 >= 0
 c80: u_a4 - u_a13 - 1141 y_a13_proc_1 - 772 y_a13_proc_2 >= 0
 c81: u_a14 - u_a7 - 1083 y_a7_proc_1 - 1168 y_a7_proc_2 >= 0
 c82: u_a0 - u_a14 - 688 y_a14_proc_0 - 754 y_a14_proc_2 >= -2
 c83: u_a1 - u_a12 - 1068 y_a12_proc_0 - 1237 y_a12_proc_1 >= -1
 c84: u_a3 - u_a2 - 1144 y_a2_proc_0 - 265 y_a2_proc_1 - 1055 y_a2_proc_2 >= -2
 c85: u_a13 - u_a12 - 1068 y_a12_proc_0 - 1237 y_a12_proc_1 >= -1
 c86: u_a5 - u_a14 - 688 y_a14_proc_0 - 754 y_a14_proc_2 >= 0
 c87: - 1068 y_a12_proc_0 - 1237 y_a12_proc_1 >= -1
 c88: u_a4 - u_a1 - 978 y_a1_proc_0 - 960 y_a1_proc_1 - 833 y_a1_proc_2 >= -1
 c89: u_a8 - u_a14 - 688 y_a14_proc_0 - 754 y_a14_proc_2 >= -1
 c90: u_a9 - u_a2 - 1144 y_a2_proc_0 - 265 y_a2_proc_1 - 1055 y_a2_proc_2 >= -2
 c91: u_a9 - u_a3 - 837 y_a3_proc_0 - 974 y_a3_proc_1 >= 0
 c92: u_a10 - u_a9 - 831 y_a9_proc_0 - 1180 y_a9_proc_1 - 1163 y_a9_proc_2 >= 0
 c93: - 1260 y_a11_proc_0 - 448 y_a11_proc_1 - 908 y_a11_proc_2 >= -1
 c94: u_a6 - u_a4 - 1150 y_a4_proc_1 - 952 y_a4_proc_2 >= 0
 c95: u_a1 - u_a0 - 974 y_a0_proc_2 >= -3864
 c96: u_a1 - u_a0 - 848 y_a0_proc_0 >= -2576
 c97: u_a1 - u_a0 - 952 y_a0_proc_1 >= -2576
 c98: u_a0 - u_a1 - 833 y_a1_proc_2 >= -1289
 c99: u_a0 - u_a1 - 978 y_a1_proc_0 >= -1
 c100: u_a0 - u_a1 - 960 y_a1_proc_1 >= -1
 c101: u_a2 - u_a0 - 974 y_a0_proc_2 >= -3862
 c102: u_a2 - u_a0 - 848 y_a0_proc_0 >= -2574
 c103: u_a2 - u_a0 - 952 y_a0_proc_1 >= -2574
 c104: u_a0 - u_a2 - 1055 y_a2_proc_2 >= -1291
 c105: u_a0 - u_a2 - 1144 y_a2_proc_0 >= -3
 c106: u_a0 - u_a2 - 265 y_a2_proc_1 >= -3
 c107: u_a3 - u_a0 - 848 y_a0_proc_0 >= 0
 c108: u_a3 - u_a0 - 952 y_a0_proc_1 >= -2576
 c109: u_a0 - u_a3 - 837 y_a3_proc_0 >= -1
 c110: u_a0 - u_a3 - 974 y_a3_proc_1 >= -2577
 c111: u_a4 - u_a0 - 974 y_a0_proc_2 >= -2577
 c112: u_a4 - u_a0 - 952 y_a0_proc_1 >= -3865
 c113: u_a0 - u_a4 - 952 y_a4_proc_2 >= 0
 c114: u_a0 - u_a4 - 1150 y_a4_proc_1 >= -1288
 c115: u_a5 - u_a0 - 974 y_a0_proc_2 >= -2575
 c116: u_a5 - u_a0 - 848 y_a0_proc_0 >= 1
 c117: u_a5 - u_a0 - 952 y_a0_proc_1 >= -2575
 c118: u_a0 - u_a5 - 751 y_a5_proc_2 >= -2578
 c119: u_a0 - u_a5 - 832 y_a5_proc_0 >= -2
 c120: u_a0 - u_a5 - 1063 y_a5_proc_1 >= -2578
 c121: u_a6 - u_a0 - 974 y_a0_proc_2 >= -2577
 c122: u_a6 - u_a0 - 848 y_a0_proc_0 >= -2577
 c123: u_a6 - u_a0 - 952 y_a0_proc_1 >= -3865
 c124: u_a0 - u_a6 - 771 y_a6_proc_2 >= 0
 c125: u_a0 - u_a6 - 1070 y_a6_proc_0 >= 0
 c126: u_a0 - u_a6 - 1213 y_a6_proc_1 >= -1288
 c127: u_a7 - u_a0 - 974 y_a0_proc_2 >= -2576
 c128: u_a7 - u_a0 - 952 y_a0_proc_1 >= -3864
 c129: u_a0 - u_a7 - 1168 y_a7_proc_2 >= -1
 c130: u_a0 - u_a7 - 1083 y_a7_proc_1 >= -1289
 c131: u_a8 - u_a0 - 974 y_a0_proc_2 >= -2576
 c132: u_a8 - u_a0 - 848 y_a0_proc_0 >= -2576
 c133: u_a0 - u_a8 - 768 y_a8_proc_2 >= -1
 c134: u_a0 - u_a8 - 855 y_a8_proc_0 >= -1
 c135: u_a9 - u_a0 - 974 y_a0_proc_2 >= -2576
 c136: u_a9 - u_a0 - 848 y_a0_proc_0 >= 0
 c137: u_a9 - u_a0 - 952 y_a0_proc_1 >= -2576
 c138: u_a0 - u_a9 - 1163 y_a9_proc_2 >= -2577
 c139: u_a0 - u_a9 - 831 y_a9_proc_0 >= -1
 c140: u_a0 - u_a9 - 1180 y_a9_proc_1 >= -2577
 c141: u_a10 - u_a0 - 974 y_a0_proc_2 >= -3864
 c142: u_a10 - u_a0 - 952 y_a0_proc_1 >= -2576
 c143: u_a0 - u_a10 - 1288 y_a10_proc_2 >= -1289
 c144: u_a0 - u_a10 - 923 y_a10_proc_1 >= -1
 c145: u_a11 - u_a0 - 974 y_a0_proc_2 >= -2575
 c146: u_a11 - u_a0 - 848 y_a0_proc_0 >= -2575
 c147: u_a11 - u_a0 - 952 y_a0_proc_1 >= -3863
 c148: u_a0 - u_a11 - 908 y_a11_proc_2 >= -2
 c149: u_a0 - u_a11 - 1260 y_a11_proc_0 >= -2
 c150: u_a0 - u_a11 - 448 y_a11_proc_1 >= -1290
 c151: u_a12 - u_a0 - 848 y_a0_proc_0 >= 0
 c152: u_a12 - u_a0 - 952 y_a0_proc_1 >= -2576
 c153: u_a0 - u_a12 - 1068 y_a12_proc_0 >= -1
 c154: u_a0 - u_a12 - 1237 y_a12_proc_1 >= -2577
 c155: u_a13 - u_a0 - 974 y_a0_proc_2 >= -2577
 c156: u_a13 - u_a0 - 952 y_a0_proc_1 >= -3865
 c157: u_a0 - u_a13 - 772 y_a13_proc_2 >= 0
 c158: u_a0 - u_a13 - 1141 y_a13_proc_1 >= -1288
 c159: u_a14 - u_a0 - 974 y_a0_proc_2 >= -2575
 c160: u_a14 - u_a0 - 848 y_a0_proc_0 >= -2575
 c161: u_a0 - u_a14 - 754 y_a14_proc_2 >= -2
 c162: u_a0 - u_a14 - 688 y_a14_proc_0 >= -2
 c163: u_a2 - u_a1 - 833 y_a1_proc_2 >= -2575
 c164: u_a2 - u_a1 - 978 y_a1_proc_0 >= -2575
 c165: u_a2 - u_a1 - 960 y_a1_proc_1 >= 1
 c166: u_a1 - u_a2 - 1055 y_a2_proc_2 >= -2578
 c167: u_a1 - u_a2 - 1144 y_a2_proc_0 >= -2578
 c168: u_a1 - u_a2 - 265 y_a2_proc_1 >= -2
 c169: u_a3 - u_a1 - 978 y_a1_proc_0 >= -2577
 c170: u_a3 - u_a1 - 960 y_a1_proc_1 >= -2577
 c171: u_a1 - u_a3 - 837 y_a3_proc_0 >= 0
 c172: u_a1 - u_a3 - 974 y_a3_proc_1 >= 0
 c173: u_a4 - u_a1 - 833 y_a1_proc_2 >= -2577
 c174: u_a4 - u_a1 - 960 y_a1_proc_1 >= -2577
 c175: u_a1 - u_a4 - 952 y_a4_proc_2 >= 0
 c176: u_a1 - u_a4 - 1150 y_a4_proc_1 >= 0
 c177: u_a5 - u_a1 - 833 y_a1_proc_2 >= -3863
 c178: u_a5 - u_a1 - 978 y_a1_proc_0 >= -2575
 c179: u_a5 - u_a1 - 960 y_a1_proc_1 >= -2575
 c180: u_a1 - u_a5 - 751 y_a5_proc_2 >= -1290
 c181: u_a1 - u_a5 - 832 y_a5_proc_0 >= -2
 c182: u_a1 - u_a5 - 1063 y_a5_proc_1 >= -2
 c183: u_a6 - u_a1 - 833 y_a1_proc_2 >= -2577
 c184: u_a6 - u_a1 - 978 y_a1_proc_0 >= -3865
 c185: u_a6 - u_a1 - 960 y_a1_proc_1 >= -2577
 c186: u_a1 - u_a6 - 771 y_a6_proc_2 >= 0
 c187: u_a1 - u_a6 - 1070 y_a6_proc_0 >= -1288
 c188: u_a1 - u_a6 - 1213 y_a6_proc_1 >= 0
 c189: u_a7 - u_a1 - 833 y_a1_proc_2 >= -2576
 c190: u_a7 - u_a1 - 960 y_a1_proc_1 >= -2576
 c191: u_a1 - u_a7 - 1168 y_a7_proc_2 >= -1
 c192: u_a1 - u_a7 - 1083 y_a7_proc_1 >= -1
 c193: u_a8 - u_a1 - 833 y_a1_proc_2 >= -2577
 c194: u_a8 - u_a1 - 978 y_a1_proc_0 >= -3865
 c195: u_a1 - u_a8 - 768 y_a8_proc_2 >= 0
 c196: u_a1 - u_a8 - 855 y_a8_proc_0 >= -1288
 c197: u_a9 - u_a1 - 833 y_a1_proc_2 >= -3865
 c198: u_a9 - u_a1 - 978 y_a1_proc_0 >= -2577
 c199: u_a9 - u_a1 - 960 y_a1_proc_1 >= -2577
 c200: u_a1 - u_a9 - 1163 y_a9_proc_2 >= -1288
 c201: u_a1 - u_a9 - 831 y_a9_proc_0 >= 0
 c202: u_a1 - u_a9 - 1180 y_a9_proc_1 >= 0
 c203: u_a10 - u_a1 - 833 y_a1_proc_2 >= -2577
 c204: u_a10 - u_a1 - 960 y_a1_proc_1 >= -1
 c205: u_a1 - u_a10 - 1288 y_a10_proc_2 >= -2576
 c206: u_a1 - u_a10 - 923 y_a10_proc_1 >= 0
 c207: u_a11 - u_a1 - 833 y_a1_proc_2 >= -2576
 c208: u_a11 - u_a1 - 978 y_a1_proc_0 >= -3864
 c209: u_a11 - u_a1 - 960 y_a1_proc_1 >= -2576
 c210: u_a1 - u_a11 - 908 y_a11_proc_2 >= -1
 c211: u_a1 - u_a11 - 1260 y_a11_proc_0 >= -1289
 c212: u_a1 - u_a11 - 448 y_a11_proc_1 >= -1
 c213: u_a12 - u_a1 - 978 y_a1_proc_0 >= -2576
 c214: u_a12 - u_a1 - 960 y_a1_proc_1 >= -2576
 c215: u_a1 - u_a12 - 1068 y_a12_proc_0 >= -1
 c216: u_a1 - u_a12 - 1237 y_a12_proc_1 >= -1
 c217: u_a13 - u_a1 - 833 y_a1_proc_2 >= -2
 c218: u_a13 - u_a1 - 960 y_a1_proc_1 >= -2
 c219: u_a1 - u_a13 - 772 y_a13_proc_2 >= -2575
 c220: u_a1 - u_a13 - 1141 y_a13_proc_1 >= -2575
 c221: u_a14 - u_a1 - 833 y_a1_proc_2 >= -2576
 c222: u_a14 - u_a1 - 978 y_a1_proc_0 >= -3864
 c223: u_a1 - u_a14 - 754 y_a14_proc_2 >= -1
 c224: u_a1 - u_a14 - 688 y_a14_proc_0 >= -1289
 c225: u_a3 - u_a2 - 1144 y_a2_proc_0 >= -2578
 c226: u_a3 - u_a2 - 265 y_a2_proc_1 >= -2578
 c227: u_a2 - u_a3 - 837 y_a3_proc_0 >= 1
 c228: u_a2 - u_a3 - 974 y_a3_proc_1 >= 1
 c229: u_a4 - u_a2 - 1055 y_a2_proc_2 >= -2579
 c230: u_a4 - u_a2 - 265 y_a2_proc_1 >= -2579
 c231: u_a2 - u_a4 - 952 y_a4_proc_2 >= 2
 c232: u_a2 - u_a4 - 1150 y_a4_proc_1 >= 2
 c233: u_a5 - u_a2 - 1055 y_a2_proc_2 >= -3864
 c234: u_a5 - u_a2 - 1144 y_a2_proc_0 >= -2576
 c235: u_a5 - u_a2 - 265 y_a2_proc_1 >= -2576
 c236: u_a2 - u_a5 - 751 y_a5_proc_2 >= -1289
 c237: u_a2 - u_a5 - 832 y_a5_proc_0 >= -1
 c238: u_a2 - u_a5 - 1063 y_a5_proc_1 >= -1
 c239: u_a6 - u_a2 - 1055 y_a2_proc_2 >= -2579
 c240: u_a6 - u_a2 - 1144 y_a2_proc_0 >= -3867
 c241: u_a6 - u_a2 - 265 y_a2_proc_1 >= -2579
 c242: u_a2 - u_a6 - 771 y_a6_proc_2 >= 2
 c243: u_a2 - u_a6 - 1070 y_a6_proc_0 >= -1286
 c244: u_a2 - u_a6 - 1213 y_a6_proc_1 >= 2
 c245: u_a7 - u_a2 - 1055 y_a2_proc_2 >= -2578
 c246: u_a7 - u_a2 - 265 y_a2_proc_1 >= -2578
 c247: u_a2 - u_a7 - 1168 y_a7_proc_2 >= 1
 c248: u_a2 - u_a7 - 1083 y_a7_proc_1 >= 1
 c249: u_a8 - u_a2 - 1055 y_a2_proc_2 >= -2578
 c250: u_a8 - u_a2 - 1144 y_a2_proc_0 >= -3866
 c251: u_a2 - u_a8 - 768 y_a8_proc_2 >= 1
 c252: u_a2 - u_a8 - 855 y_a8_proc_0 >= -1287
 c253: u_a9 - u_a2 - 1055 y_a2_proc_2 >= -3866
 c254: u_a9 - u_a2 - 1144 y_a2_proc_0 >= -2578
 c255: u_a9 - u_a2 - 265 y_a2_proc_1 >= -2578
 c256: u_a2 - u_a9 - 1163 y_a9_proc_2 >= -1287
 c257: u_a2 - u_a9 - 831 y_a9_proc_0 >= 1
 c258: u_a2 - u_a9 - 1180 y_a9_proc_1 >= 1
 c259: u_a10 - u_a2 - 1055 y_a2_proc_2 >= -2578
 c260: u_a10 - u_a2 - 265 y_a2_proc_1 >= -2
 c261: u_a2 - u_a10 - 1288 y_a10_proc_2 >= -2575
 c262: u_a2 - u_a10 - 923 y_a10_proc_1 >= 1
 c263: u_a11 - u_a2 - 1055 y_a2_proc_2 >= -2577
 c264: u_a11 - u_a2 - 1144 y_a2_proc_0 >= -3865
 c265: u_a11 - u_a2 - 265 y_a2_proc_1 >= -2577
 c266: u_a2 - u_a11 - 908 y_a11_proc_2 >= 0
 c267: u_a2 - u_a11 - 1260 y_a11_proc_0 >= -1288
 c268: u_a2 - u_a11 - 448 y_a11_proc_1 >= 0
 c269: u_a12 - u_a2 - 1144 y_a2_proc_0 >= -2578
 c270: u_a12 - u_a2 - 265 y_a2_proc_1 >= -2578
 c271: u_a2 - u_a12 - 1068 y_a12_proc_0 >= 1
 c272: u_a2 - u_a12 - 1237 y_a12_proc_1 >= 1
 c273: u_a13 - u_a2 - 1055 y_a2_proc_2 >= -2579
 c274: u_a13 - u_a2 - 265 y_a2_proc_1 >= -2579
 c275: u_a2 - u_a13 - 772 y_a13_proc_2 >= 2
 c276: u_a2 - u_a13 - 1141 y_a13_proc_1 >= 2
 c277: u_a14 - u_a2 - 1055 y_a2_proc_2 >= -2577
 c278: u_a14 - u_a2 - 1144 y_a2_proc_0 >= -3865
 c279: u_a2 - u_a14 - 754 y_a14_proc_2 >= 0
 c280: u_a2 - u_a14 - 688 y_a14_proc_0 >= -1288
 c281: u_a4 - u_a3 - 974 y_a3_proc_1 >= -5153
 c282: u_a3 - u_a4 - 1150 y_a4_proc_1 >= 0
 c283: u_a5 - u_a3 - 837 y_a3_proc_0 >= 1
 c284: u_a5 - u_a3 - 974 y_a3_proc_1 >= -2575
 c285: u_a3 - u_a5 - 832 y_a5_proc_0 >= -2
 c286: u_a3 - u_a5 - 1063 y_a5_proc_1 >= -2578
 c287: u_a6 - u_a3 - 837 y_a3_proc_0 >= -2577
 c288: u_a6 - u_a3 - 974 y_a3_proc_1 >= -3865
 c289: u_a3 - u_a6 - 1070 y_a6_proc_0 >= 0
 c290: u_a3 - u_a6 - 1213 y_a6_proc_1 >= -1288
 c291: u_a7 - u_a3 - 974 y_a3_proc_1 >= -5152
 c292: u_a3 - u_a7 - 1083 y_a7_proc_1 >= -1
 c293: u_a8 - u_a3 - 837 y_a3_proc_0 >= -2576
 c294: u_a3 - u_a8 - 855 y_a8_proc_0 >= -1
 c295: u_a9 - u_a3 - 837 y_a3_proc_0 >= 0
 c296: u_a9 - u_a3 - 974 y_a3_proc_1 >= -2576
 c297: u_a3 - u_a9 - 831 y_a9_proc_0 >= -1
 c298: u_a3 - u_a9 - 1180 y_a9_proc_1 >= -2577
 c299: u_a10 - u_a3 - 974 y_a3_proc_1 >= -2576
 c300: u_a3 - u_a10 - 923 y_a10_proc_1 >= -1
 c301: u_a11 - u_a3 - 837 y_a3_proc_0 >= -2576
 c302: u_a11 - u_a3 - 974 y_a3_proc_1 >= -3864
 c303: u_a3 - u_a11 - 1260 y_a11_proc_0 >= -1
 c304: u_a3 - u_a11 - 448 y_a11_proc_1 >= -1289
 c305: u_a12 - u_a3 - 837 y_a3_proc_0 >= 0
 c306: u_a12 - u_a3 - 974 y_a3_proc_1 >= -2576
 c307: u_a3 - u_a12 - 1068 y_a12_proc_0 >= -1
 c308: u_a3 - u_a12 - 1237 y_a12_proc_1 >= -2577
 c309: u_a13 - u_a3 - 974 y_a3_proc_1 >= -5153
 c310: u_a3 - u_a13 - 1141 y_a13_proc_1 >= 0
 c311: u_a14 - u_a3 - 837 y_a3_proc_0 >= -2575
 c312: u_a3 - u_a14 - 688 y_a14_proc_0 >= -2
 c313: u_a5 - u_a4 - 952 y_a4_proc_2 >= 2
 c314: u_a5 - u_a4 - 1150 y_a4_proc_1 >= -1286
 c315: u_a4 - u_a5 - 751 y_a5_proc_2 >= -2579
 c316: u_a4 - u_a5 - 1063 y_a5_proc_1 >= -3867
 c317: u_a6 - u_a4 - 952 y_a4_proc_2 >= 0
 c318: u_a6 - u_a4 - 1150 y_a4_proc_1 >= -2576
 c319: u_a4 - u_a6 - 771 y_a6_proc_2 >= -1
 c320: u_a4 - u_a6 - 1213 y_a6_proc_1 >= -2577
 c321: u_a7 - u_a4 - 952 y_a4_proc_2 >= 1
 c322: u_a7 - u_a4 - 1150 y_a4_proc_1 >= -2575
 c323: u_a4 - u_a7 - 1168 y_a7_proc_2 >= -2
 c324: u_a4 - u_a7 - 1083 y_a7_proc_1 >= -2578
 c325: u_a8 - u_a4 - 952 y_a4_proc_2 >= 0
 c326: u_a4 - u_a8 - 768 y_a8_proc_2 >= -1
 c327: u_a9 - u_a4 - 952 y_a4_proc_2 >= -2576
 c328: u_a9 - u_a4 - 1150 y_a4_proc_1 >= -3864
 c329: u_a4 - u_a9 - 1163 y_a9_proc_2 >= -1
 c330: u_a4 - u_a9 - 1180 y_a9_proc_1 >= -1289
 c331: u_a10 - u_a4 - 952 y_a4_proc_2 >= -2576
 c332: u_a10 - u_a4 - 1150 y_a4_proc_1 >= -2576
 c333: u_a4 - u_a10 - 1288 y_a10_proc_2 >= -1
 c334: u_a4 - u_a10 - 923 y_a10_proc_1 >= -1
 c335: u_a11 - u_a4 - 952 y_a4_proc_2 >= 1
 c336: u_a11 - u_a4 - 1150 y_a4_proc_1 >= -2575
 c337: u_a4 - u_a11 - 908 y_a11_proc_2 >= -2
 c338: u_a4 - u_a11 - 448 y_a11_proc_1 >= -2578
 c339: u_a12 - u_a4 - 1150 y_a4_proc_1 >= -5152
 c340: u_a4 - u_a12 - 1237 y_a12_proc_1 >= -1
 c341: u_a13 - u_a4 - 952 y_a4_proc_2 >= -1
 c342: u_a13 - u_a4 - 1150 y_a4_proc_1 >= -2577
 c343: u_a4 - u_a13 - 772 y_a13_proc_2 >= 0
 c344: u_a4 - u_a13 - 1141 y_a13_proc_1 >= -2576
 c345: u_a14 - u_a4 - 952 y_a4_proc_2 >= 1
 c346: u_a4 - u_a14 - 754 y_a14_proc_2 >= -2
 c347: u_a6 - u_a5 - 751 y_a5_proc_2 >= -2579
 c348: u_a6 - u_a5 - 832 y_a5_proc_0 >= -2579
 c349: u_a6 - u_a5 - 1063 y_a5_proc_1 >= -3867
 c350: u_a5 - u_a6 - 771 y_a6_proc_2 >= 2
 c351: u_a5 - u_a6 - 1070 y_a6_proc_0 >= 2
 c352: u_a5 - u_a6 - 1213 y_a6_proc_1 >= -1286
 c353: u_a7 - u_a5 - 751 y_a5_proc_2 >= -2577
 c354: u_a7 - u_a5 - 1063 y_a5_proc_1 >= -3865
 c355: u_a5 - u_a7 - 1168 y_a7_proc_2 >= 0
 c356: u_a5 - u_a7 - 1083 y_a7_proc_1 >= -1288
 c357: u_a8 - u_a5 - 751 y_a5_proc_2 >= -2
 c358: u_a8 - u_a5 - 832 y_a5_proc_0 >= -2
 c359: u_a5 - u_a8 - 768 y_a8_proc_2 >= -2575
 c360: u_a5 - u_a8 - 855 y_a8_proc_0 >= -2575
 c361: u_a9 - u_a5 - 751 y_a5_proc_2 >= -2578
 c362: u_a9 - u_a5 - 832 y_a5_proc_0 >= -2
 c363: u_a9 - u_a5 - 1063 y_a5_proc_1 >= -2578
 c364: u_a5 - u_a9 - 1163 y_a9_proc_2 >= -2575
 c365: u_a5 - u_a9 - 831 y_a9_proc_0 >= 1
 c366: u_a5 - u_a9 - 1180 y_a9_proc_1 >= -2575
 c367: u_a10 - u_a5 - 751 y_a5_proc_2 >= -3866
 c368: u_a10 - u_a5 - 1063 y_a5_proc_1 >= -2578
 c369: u_a5 - u_a10 - 1288 y_a10_proc_2 >= -1287
 c370: u_a5 - u_a10 - 923 y_a10_proc_1 >= 1
 c371: u_a11 - u_a5 - 751 y_a5_proc_2 >= -2577
 c372: u_a11 - u_a5 - 832 y_a5_proc_0 >= -2577
 c373: u_a11 - u_a5 - 1063 y_a5_proc_1 >= -3865
 c374: u_a5 - u_a11 - 908 y_a11_proc_2 >= 0
 c375: u_a5 - u_a11 - 1260 y_a11_proc_0 >= 0
 c376: u_a5 - u_a11 - 448 y_a11_proc_1 >= -1288
 c377: u_a12 - u_a5 - 832 y_a5_proc_0 >= -2
 c378: u_a12 - u_a5 - 1063 y_a5_proc_1 >= -2578
 c379: u_a5 - u_a12 - 1068 y_a12_proc_0 >= 1
 c380: u_a5 - u_a12 - 1237 y_a12_proc_1 >= -2575
 c381: u_a13 - u_a5 - 751 y_a5_proc_2 >= -2579
 c382: u_a13 - u_a5 - 1063 y_a5_proc_1 >= -3867
 c383: u_a5 - u_a13 - 772 y_a13_proc_2 >= 2
 c384: u_a5 - u_a13 - 1141 y_a13_proc_1 >= -1286
 c385: u_a14 - u_a5 - 751 y_a5_proc_2 >= -2577
 c386: u_a14 - u_a5 - 832 y_a5_proc_0 >= -2577
 c387: u_a5 - u_a14 - 754 y_a14_proc_2 >= 0
 c388: u_a5 - u_a14 - 688 y_a14_proc_0 >= 0
 c389: u_a7 - u_a6 - 771 y_a6_proc_2 >= 1
 c390: u_a7 - u_a6 - 1213 y_a6_proc_1 >= -2575
 c391: u_a6 - u_a7 - 1168 y_a7_proc_2 >= -2
 c392: u_a6 - u_a7 - 1083 y_a7_proc_1 >= -2578
 c393: u_a8 - u_a6 - 771 y_a6_proc_2 >= 0
 c394: u_a8 - u_a6 - 1070 y_a6_proc_0 >= -2576
 c395: u_a6 - u_a8 - 768 y_a8_proc_2 >= -1
 c396: u_a6 - u_a8 - 855 y_a8_proc_0 >= -2577
 c397: u_a9 - u_a6 - 771 y_a6_proc_2 >= -2576
 c398: u_a9 - u_a6 - 1070 y_a6_proc_0 >= -2576
 c399: u_a9 - u_a6 - 1213 y_a6_proc_1 >= -3864
 c400: u_a6 - u_a9 - 1163 y_a9_proc_2 >= -1
 c401: u_a6 - u_a9 - 831 y_a9_proc_0 >= -1
 c402: u_a6 - u_a9 - 1180 y_a9_proc_1 >= -1289
 c403: u_a10 - u_a6 - 771 y_a6_proc_2 >= -2576
 c404: u_a10 - u_a6 - 1213 y_a6_proc_1 >= -2576
 c405: u_a6 - u_a10 - 1288 y_a10_proc_2 >= -1
 c406: u_a6 - u_a10 - 923 y_a10_proc_1 >= -1
 c407: u_a11 - u_a6 - 771 y_a6_proc_2 >= 1
 c408: u_a11 - u_a6 - 1070 y_a6_proc_0 >= -2575
 c409: u_a11 - u_a6 - 1213 y_a6_proc_1 >= -2575
 c410: u_a6 - u_a11 - 908 y_a11_proc_2 >= -2
 c411: u_a6 - u_a11 - 1260 y_a11_proc_0 >= -2578
 c412: u_a6 - u_a11 - 448 y_a11_proc_1 >= -2578
 c413: u_a12 - u_a6 - 1070 y_a6_proc_0 >= -2576
 c414: u_a12 - u_a6 - 1213 y_a6_proc_1 >= -3864
 c415: u_a6 - u_a12 - 1068 y_a12_proc_0 >= -1
 c416: u_a6 - u_a12 - 1237 y_a12_proc_1 >= -1289
 c417: u_a13 - u_a6 - 771 y_a6_proc_2 >= -1
 c418: u_a13 - u_a6 - 1213 y_a6_proc_1 >= -2577
 c419: u_a6 - u_a13 - 772 y_a13_proc_2 >= 0
 c420: u_a6 - u_a13 - 1141 y_a13_proc_1 >= -2576
 c421: u_a14 - u_a6 - 771 y_a6_proc_2 >= 1
 c422: u_a14 - u_a6 - 1070 y_a6_proc_0 >= -2575
 c423: u_a6 - u_a14 - 754 y_a14_proc_2 >= -2
 c424: u_a6 - u_a14 - 688 y_a14_proc_0 >= -2578
 c425: u_a8 - u_a7 - 1168 y_a7_proc_2 >= -1
 c426: u_a7 - u_a8 - 768 y_a8_proc_2 >= 0
 c427: u_a9 - u_a7 - 1168 y_a7_proc_2 >= -2577
 c428: u_a9 - u_a7 - 1083 y_a7_proc_1 >= -3865
 c429: u_a7 - u_a9 - 1163 y_a9_proc_2 >= 0
 c430: u_a7 - u_a9 - 1180 y_a9_proc_1 >= -1288
 c431: u_a10 - u_a7 - 1168 y_a7_proc_2 >= -2577
 c432: u_a10 - u_a7 - 1083 y_a7_proc_1 >= -2577
 c433: u_a7 - u_a10 - 1288 y_a10_proc_2 >= 0
 c434: u_a7 - u_a10 - 923 y_a10_proc_1 >= 0
 c435: u_a11 - u_a7 - 1168 y_a7_proc_2 >= 0
 c436: u_a11 - u_a7 - 1083 y_a7_proc_1 >= -2576
 c437: u_a7 - u_a11 - 908 y_a11_proc_2 >= -1
 c438: u_a7 - u_a11 - 448 y_a11_proc_1 >= -2577
 c439: u_a12 - u_a7 - 1083 y_a7_proc_1 >= -5153
 c440: u_a7 - u_a12 - 1237 y_a12_proc_1 >= 0
 c441: u_a13 - u_a7 - 1168 y_a7_proc_2 >= -2
 c442: u_a13 - u_a7 - 1083 y_a7_proc_1 >= -2578
 c443: u_a7 - u_a13 - 772 y_a13_proc_2 >= 1
 c444: u_a7 - u_a13 - 1141 y_a13_proc_1 >= -2575
 c445: u_a14 - u_a7 - 1168 y_a7_proc_2 >= 0
 c446: u_a7 - u_a14 - 754 y_a14_proc_2 >= -1
 c447: u_a9 - u_a8 - 768 y_a8_proc_2 >= -2576
 c448: u_a9 - u_a8 - 855 y_a8_proc_0 >= -2576
 c449: u_a8 - u_a9 - 1163 y_a9_proc_2 >= -1
 c450: u_a8 - u_a9 - 831 y_a9_proc_0 >= -1
 c451: u_a10 - u_a8 - 768 y_a8_proc_2 >= -2576
 c452: u_a8 - u_a10 - 1288 y_a10_proc_2 >= -1
 c453: u_a11 - u_a8 - 768 y_a8_proc_2 >= 0
 c454: u_a11 - u_a8 - 855 y_a8_proc_0 >= -2576
 c455: u_a8 - u_a11 - 908 y_a11_proc_2 >= -1
 c456: u_a8 - u_a11 - 1260 y_a11_proc_0 >= -2577
 c457: u_a12 - u_a8 - 855 y_a8_proc_0 >= -2576
 c458: u_a8 - u_a12 - 1068 y_a12_proc_0 >= -1
 c459: u_a13 - u_a8 - 768 y_a8_proc_2 >= -1
 c460: u_a8 - u_a13 - 772 y_a13_proc_2 >= 0
 c461: u_a14 - u_a8 - 768 y_a8_proc_2 >= 0
 c462: u_a14 - u_a8 - 855 y_a8_proc_0 >= -2576
 c463: u_a8 - u_a14 - 754 y_a14_proc_2 >= -1
 c464: u_a8 - u_a14 - 688 y_a14_proc_0 >= -2577
 c465: u_a10 - u_a9 - 1163 y_a9_proc_2 >= -3864
 c466: u_a10 - u_a9 - 1180 y_a9_proc_1 >= -2576
 c467: u_a9 - u_a10 - 1288 y_a10_proc_2 >= -1289
 c468: u_a9 - u_a10 - 923 y_a10_proc_1 >= -1
 c469: u_a11 - u_a9 - 1163 y_a9_proc_2 >= -2576
 c470: u_a11 - u_a9 - 831 y_a9_proc_0 >= -2576
 c471: u_a11 - u_a9 - 1180 y_a9_proc_1 >= -3864
 c472: u_a9 - u_a11 - 908 y_a11_proc_2 >= -1
 c473: u_a9 - u_a11 - 1260 y_a11_proc_0 >= -1
 c474: u_a9 - u_a11 - 448 y_a11_proc_1 >= -1289
 c475: u_a12 - u_a9 - 831 y_a9_proc_0 >= 0
 c476: u_a12 - u_a9 - 1180 y_a9_proc_1 >= -2576
 c477: u_a9 - u_a12 - 1068 y_a12_proc_0 >= -1
 c478: u_a9 - u_a12 - 1237 y_a12_proc_1 >= -2577
 c479: u_a13 - u_a9 - 1163 y_a9_proc_2 >= -2577
 c480: u_a13 - u_a9 - 1180 y_a9_proc_1 >= -3865
 c481: u_a9 - u_a13 - 772 y_a13_proc_2 >= 0
 c482: u_a9 - u_a13 - 1141 y_a13_proc_1 >= -1288
 c483: u_a14 - u_a9 - 1163 y_a9_proc_2 >= -2575
 c484: u_a14 - u_a9 - 831 y_a9_proc_0 >= -2575
 c485: u_a9 - u_a14 - 754 y_a14_proc_2 >= -2
 c486: u_a9 - u_a14 - 688 y_a14_proc_0 >= -2
 c487: u_a11 - u_a10 - 1288 y_a10_proc_2 >= -2576
 c488: u_a11 - u_a10 - 923 y_a10_proc_1 >= -2576
 c489: u_a10 - u_a11 - 908 y_a11_proc_2 >= -1
 c490: u_a10 - u_a11 - 448 y_a11_proc_1 >= -1
 c491: u_a12 - u_a10 - 923 y_a10_proc_1 >= -2576
 c492: u_a10 - u_a12 - 1237 y_a12_proc_1 >= -1
 c493: u_a13 - u_a10 - 1288 y_a10_proc_2 >= -2577
 c494: u_a13 - u_a10 - 923 y_a10_proc_1 >= -2577
 c495: u_a10 - u_a13 - 772 y_a13_proc_2 >= 0
 c496: u_a10 - u_a13 - 1141 y_a13_proc_1 >= 0
 c497: u_a14 - u_a10 - 1288 y_a10_proc_2 >= -2576
 c498: u_a10 - u_a14 - 754 y_a14_proc_2 >= -1
 c499: u_a12 - u_a11 - 1260 y_a11_proc_0 >= -2577
 c500: u_a12 - u_a11 - 448 y_a11_proc_1 >= -3865
 c501: u_a11 - u_a12 - 1068 y_a12_proc_0 >= 0
 c502: u_a11 - u_a12 - 1237 y_a12_proc_1 >= -1288
 c503: u_a13 - u_a11 - 908 y_a11_proc_2 >= -2
 c504: u_a13 - u_a11 - 448 y_a11_proc_1 >= -2578
 c505: u_a11 - u_a13 - 772 y_a13_proc_2 >= 1
 c506: u_a11 - u_a13 - 1141 y_a13_proc_1 >= -2575
 c507: u_a14 - u_a11 - 908 y_a11_proc_2 >= 0
 c508: u_a14 - u_a11 - 1260 y_a11_proc_0 >= -2576
 c509: u_a11 - u_a14 - 754 y_a14_proc_2 >= -1
 c510: u_a11 - u_a14 - 688 y_a14_proc_0 >= -2577
 c511: u_a13 - u_a12 - 1237 y_a12_proc_1 >= -5153
 c512: u_a12 - u_a13 - 1141 y_a13_proc_1 >= 0
 c513: u_a14 - u_a12 - 1068 y_a12_proc_0 >= -2576
 c514: u_a12 - u_a14 - 688 y_a14_proc_0 >= -1
 c515: u_a14 - u_a13 - 772 y_a13_proc_2 >= 1
 c516: u_a13 - u_a14 - 754 y_a14_proc_2 >= -2

Bounds
End
